2025-09-13 02:24:14,261 | INFO | Logging to Demo5\scheduler_run.log
2025-09-13 02:24:14,262 | INFO | ===== SCHEDULER RUN 20250913_022414 =====
2025-09-13 02:24:14,263 | INFO | Args.case=C:\Users\sapper\AppData\Local\Temp\tmpnuanhbvd.json
2025-09-13 02:24:14,269 | INFO | Loaded case with 31 days, 308 shifts, 19 providers
2025-09-13 02:24:14,270 | INFO | Run config: out=Demo5 k=4 seed=1234 time=1500 L=50
2025-09-13 02:24:14,276 | INFO | Wrote: Demo5\constants_effective.log
2025-09-13 02:24:14,286 | INFO | Wrote capacity snapshot: Demo5\eligibility_capacity.json
2025-09-13 02:24:14,287 | INFO | Instance: |days|=31 |shifts|=308 |providers|=19 |types|=10
2025-09-13 02:24:14,288 | INFO | Weekend names: ['Saturday', 'Sunday']
2025-09-13 02:24:14,289 | INFO | Weekend indices: [3, 4, 10, 11, 17, 18, 24, 25]
2025-09-13 02:24:14,290 | INFO | Shift[0] keys: ['id', 'date', 'type', 'start', 'end', 'allowed_provider_types']
2025-09-13 02:24:14,290 | INFO | Provider[0] keys: ['id', 'name', 'type', 'weekday_pref', 'type_pref', 'requested_off_soft', 'preferred_days_soft', 'forbidden_days_hard', 'limits', 'preferred_days_hard', 'max_consecutive_days', 'forbidden_days_soft']
2025-09-13 02:24:14,291 | INFO | Provider types: ['MD', 'MD2']
2025-09-13 02:24:14,598 | INFO | max_consecutive_days per provider (0 means no cap): [12, 6, 31, 9, 5, 10, 31, 31, 8, 31, 31, 6, 31, 7, 31, 20, 31, 8, 2]
2025-09-13 02:24:17,398 | INFO | 0
2025-09-13 02:24:17,404 | INFO | 1
2025-09-13 02:24:17,412 | INFO | 2
2025-09-13 02:24:17,420 | INFO | 3
2025-09-13 02:24:17,427 | INFO | 4
2025-09-13 02:24:17,434 | INFO | 5
2025-09-13 02:24:17,440 | INFO | 6
2025-09-13 02:24:17,448 | INFO | 7
2025-09-13 02:24:17,453 | INFO | 8
2025-09-13 02:24:17,460 | INFO | 9
2025-09-13 02:24:17,469 | INFO | 10
2025-09-13 02:24:17,476 | INFO | 11
2025-09-13 02:24:17,482 | INFO | 12
2025-09-13 02:24:17,488 | INFO | 13
2025-09-13 02:24:17,496 | INFO | 14
2025-09-13 02:24:17,503 | INFO | 15
2025-09-13 02:24:17,512 | INFO | 16
2025-09-13 02:24:17,521 | INFO | 17
2025-09-13 02:24:17,530 | INFO | 18
2025-09-13 02:24:17,567 | INFO | Phase-1 solve: time=120.0s workers=8
2025-09-13 02:24:17,645 | INFO | [phase1] 
2025-09-13 02:24:17,646 | INFO | [phase1] Starting CP-SAT solver v9.14.6206
2025-09-13 02:24:17,647 | INFO | [phase1] Parameters: max_time_in_seconds: 120 log_search_progress: true num_search_workers: 8 log_to_stdout: false
2025-09-13 02:24:17,689 | INFO | [phase1] 
2025-09-13 02:24:17,753 | INFO | [phase1] Initial optimization model '': (model_fingerprint: 0x116820da94933b9c)
#Variables: 9'877 (#ints: 1 in objective) (6'240 primary variables)
  - 7'348 Booleans in [0,1]
  - 19 in [-31,31]
  - 1'216 in [0,31]
  - 19 in [0,308]
  - 589 in [0,961]
  - 76 in [0,1000]
  - 608 in [0,29791]
  - 1 in [0,1000000000000000000]
  - 1 constants in {0} 
#kAtMostOne: 34'713 (#literals: 69'426)
#kIntProd: 1'178
#kLinMax: 38 (#expressions: 627)
#kLinear1: 4'094 (#enforced: 1'767 #multi: 570)
#kLinear2: 8'228 (#enforced: 1'159 #multi: 570)
#kLinear3: 571
#kLinearN: 976 (#terms: 26'986)
2025-09-13 02:24:17,756 | INFO | [phase1] 
2025-09-13 02:24:17,756 | INFO | [phase1] Starting presolve at 0.11s
2025-09-13 02:24:18,102 | INFO | [phase1]   1.00e-02s  0.00e+00d  [DetectDominanceRelations]
2025-09-13 02:24:18,105 | INFO | [phase1]   2.69e-01s  0.00e+00d  [operations_research::sat::CpModelPresolver::PresolveToFixPoint] #num_loops=3 #num_dual_strengthening=2
2025-09-13 02:24:18,107 | INFO | [phase1]   2.13e-03s  0.00e+00d  [operations_research::sat::CpModelPresolver::ExtractEncodingFromLinear] #potential_supersets=12'718
2025-09-13 02:24:18,117 | INFO | [phase1]   5.03e-03s  0.00e+00d  [operations_research::sat::CpModelPresolver::DetectDuplicateColumns]
2025-09-13 02:24:18,125 | INFO | [phase1]   7.65e-03s  0.00e+00d  [operations_research::sat::CpModelPresolver::DetectDuplicateConstraints] #duplicates=403
2025-09-13 02:24:18,151 | INFO | [phase1] [SAT presolve] num removable Booleans: 0 / 5020
2025-09-13 02:24:18,151 | INFO | [phase1] [SAT presolve] num trivial clauses: 0
2025-09-13 02:24:18,152 | INFO | [phase1] [SAT presolve] [0s] clauses:5867 literals:15515 vars:4712 one_side_vars:2 simple_definition:4106 singleton_clauses:0
2025-09-13 02:24:18,154 | INFO | [phase1] [SAT presolve] [0.003083s] clauses:5867 literals:15515 vars:4712 one_side_vars:2 simple_definition:4106 singleton_clauses:0
2025-09-13 02:24:18,155 | INFO | [phase1] [SAT presolve] [0.0042657s] clauses:5867 literals:15515 vars:4712 one_side_vars:2 simple_definition:4106 singleton_clauses:0
2025-09-13 02:24:18,411 | INFO | [phase1]   6.65e-03s  0.00e+00d  [operations_research::sat::CpModelPresolver::DetectDuplicateConstraintsWithDifferentEnforcements]
2025-09-13 02:24:18,412 | INFO | [phase1]   2.48e-01s  2.57e-02d  [operations_research::sat::CpModelPresolver::Probe] #probed=13'584 #new_bounds=608 #new_binary_clauses=1'758
2025-09-13 02:24:18,446 | INFO | [phase1]   3.34e-02s  4.06e-03d  [MaxClique] Merged 16'708(33'416 literals) into 2'686(10'828 literals) at_most_ones.
2025-09-13 02:24:18,530 | INFO | [phase1]   8.95e-03s  0.00e+00d  [DetectDominanceRelations]
2025-09-13 02:24:18,532 | INFO | [phase1]   8.09e-02s  0.00e+00d  [operations_research::sat::CpModelPresolver::PresolveToFixPoint] #num_loops=2 #num_dual_strengthening=1
2025-09-13 02:24:18,541 | INFO | [phase1]   8.58e-03s  0.00e+00d  [operations_research::sat::CpModelPresolver::ProcessAtMostOneAndLinear]
2025-09-13 02:24:18,549 | INFO | [phase1]   7.22e-03s  0.00e+00d  [operations_research::sat::CpModelPresolver::DetectDuplicateConstraints]
2025-09-13 02:24:18,557 | INFO | [phase1]   6.61e-03s  0.00e+00d  [operations_research::sat::CpModelPresolver::DetectDuplicateConstraintsWithDifferentEnforcements]
2025-09-13 02:24:18,559 | INFO | [phase1]   1.62e-03s  1.89e-05d  [operations_research::sat::CpModelPresolver::DetectDominatedLinearConstraints] #relevant_constraints=58
2025-09-13 02:24:18,562 | INFO | [phase1]   1.78e-03s  0.00e+00d  [operations_research::sat::CpModelPresolver::DetectDifferentVariables]
2025-09-13 02:24:18,570 | INFO | [phase1]   8.13e-03s  3.43e-04d  [operations_research::sat::CpModelPresolver::ProcessSetPPC] #relevant_constraints=4'264 #num_inclusions=2'981
2025-09-13 02:24:18,573 | INFO | [phase1]   1.58e-03s  0.00e+00d  [operations_research::sat::CpModelPresolver::FindAlmostIdenticalLinearConstraints]
2025-09-13 02:24:18,621 | INFO | [phase1]   4.40e-02s  1.11e-02d  [operations_research::sat::CpModelPresolver::FindBigAtMostOneAndLinearOverlap]
2025-09-13 02:24:18,633 | INFO | [phase1]   1.09e-02s  5.35e-03d  [operations_research::sat::CpModelPresolver::FindBigVerticalLinearOverlap]
2025-09-13 02:24:18,638 | INFO | [phase1]   4.56e-03s  5.15e-04d  [operations_research::sat::CpModelPresolver::FindBigHorizontalLinearOverlap] #blocks=9 #saved_nz=1'545 #linears=47
2025-09-13 02:24:18,643 | INFO | [phase1]   3.33e-03s  1.55e-05d  [operations_research::sat::CpModelPresolver::MergeClauses]
2025-09-13 02:24:18,727 | INFO | [phase1]   1.21e-02s  0.00e+00d  [DetectDominanceRelations]
2025-09-13 02:24:18,730 | INFO | [phase1]   8.26e-02s  0.00e+00d  [operations_research::sat::CpModelPresolver::PresolveToFixPoint] #num_loops=3 #num_dual_strengthening=2
2025-09-13 02:24:18,803 | INFO | [phase1]   1.44e-02s  0.00e+00d  [DetectDominanceRelations]
2025-09-13 02:24:18,804 | INFO | [phase1]   7.41e-02s  0.00e+00d  [operations_research::sat::CpModelPresolver::PresolveToFixPoint] #num_loops=1 #num_dual_strengthening=1
2025-09-13 02:24:18,810 | INFO | [phase1]   4.55e-03s  0.00e+00d  [operations_research::sat::CpModelPresolver::DetectDuplicateColumns]
2025-09-13 02:24:18,818 | INFO | [phase1]   7.62e-03s  0.00e+00d  [operations_research::sat::CpModelPresolver::DetectDuplicateConstraints]
2025-09-13 02:24:18,834 | INFO | [phase1] [SAT presolve] num removable Booleans: 57 / 4769
2025-09-13 02:24:18,835 | INFO | [phase1] [SAT presolve] num trivial clauses: 0
2025-09-13 02:24:18,835 | INFO | [phase1] [SAT presolve] [0s] clauses:2054 literals:5548 vars:1949 one_side_vars:723 simple_definition:599 singleton_clauses:0
2025-09-13 02:24:18,837 | INFO | [phase1] [SAT presolve] [0.0024292s] clauses:2016 literals:5396 vars:1949 one_side_vars:723 simple_definition:637 singleton_clauses:0
2025-09-13 02:24:18,838 | INFO | [phase1] [SAT presolve] [0.0041256s] clauses:1902 literals:5168 vars:1892 one_side_vars:723 simple_definition:618 singleton_clauses:0
2025-09-13 02:24:19,073 | INFO | [phase1]   7.12e-03s  0.00e+00d  [operations_research::sat::CpModelPresolver::DetectDuplicateConstraintsWithDifferentEnforcements]
2025-09-13 02:24:19,074 | INFO | [phase1]   2.32e-01s  2.09e-02d  [operations_research::sat::CpModelPresolver::Probe] #probed=13'660 #new_bounds=1'653 #new_binary_clauses=1'720
2025-09-13 02:24:19,086 | INFO | [phase1]   1.14e-02s  2.64e-03d  [MaxClique]
2025-09-13 02:24:19,187 | INFO | [phase1]   9.95e-03s  0.00e+00d  [DetectDominanceRelations]
2025-09-13 02:24:19,189 | INFO | [phase1]   9.64e-02s  0.00e+00d  [operations_research::sat::CpModelPresolver::PresolveToFixPoint] #num_loops=2 #num_dual_strengthening=1
2025-09-13 02:24:19,196 | INFO | [phase1]   7.09e-03s  0.00e+00d  [operations_research::sat::CpModelPresolver::ProcessAtMostOneAndLinear]
2025-09-13 02:24:19,203 | INFO | [phase1]   6.27e-03s  0.00e+00d  [operations_research::sat::CpModelPresolver::DetectDuplicateConstraints]
2025-09-13 02:24:19,210 | INFO | [phase1]   6.56e-03s  0.00e+00d  [operations_research::sat::CpModelPresolver::DetectDuplicateConstraintsWithDifferentEnforcements]
2025-09-13 02:24:19,213 | INFO | [phase1]   1.83e-03s  1.26e-05d  [operations_research::sat::CpModelPresolver::DetectDominatedLinearConstraints] #relevant_constraints=67
2025-09-13 02:24:19,215 | INFO | [phase1]   1.40e-03s  0.00e+00d  [operations_research::sat::CpModelPresolver::DetectDifferentVariables]
2025-09-13 02:24:19,223 | INFO | [phase1]   6.87e-03s  2.49e-04d  [operations_research::sat::CpModelPresolver::ProcessSetPPC] #relevant_constraints=3'770 #num_inclusions=2'277
2025-09-13 02:24:19,224 | INFO | [phase1]   1.21e-03s  0.00e+00d  [operations_research::sat::CpModelPresolver::FindAlmostIdenticalLinearConstraints]
2025-09-13 02:24:19,256 | INFO | [phase1]   2.83e-02s  8.15e-03d  [operations_research::sat::CpModelPresolver::FindBigAtMostOneAndLinearOverlap]
2025-09-13 02:24:19,264 | INFO | [phase1]   7.58e-03s  3.86e-03d  [operations_research::sat::CpModelPresolver::FindBigVerticalLinearOverlap]
2025-09-13 02:24:19,268 | INFO | [phase1]   2.79e-03s  6.80e-04d  [operations_research::sat::CpModelPresolver::FindBigHorizontalLinearOverlap] #linears=38
2025-09-13 02:24:19,272 | INFO | [phase1]   2.86e-03s  1.44e-05d  [operations_research::sat::CpModelPresolver::MergeClauses]
2025-09-13 02:24:19,327 | INFO | [phase1]   8.32e-03s  0.00e+00d  [DetectDominanceRelations]
2025-09-13 02:24:19,329 | INFO | [phase1]   5.45e-02s  0.00e+00d  [operations_research::sat::CpModelPresolver::PresolveToFixPoint] #num_loops=1 #num_dual_strengthening=1
2025-09-13 02:24:19,339 | INFO | [phase1]   9.21e-03s  0.00e+00d  [operations_research::sat::CpModelPresolver::ExpandObjective] #entries=24'030 #tight_variables=3'244 #tight_constraints=418 #expands=285
2025-09-13 02:24:19,356 | INFO | [phase1] 
2025-09-13 02:24:19,357 | INFO | [phase1] Presolve summary:
2025-09-13 02:24:19,357 | INFO | [phase1]   - 62 affine relations were detected.
2025-09-13 02:24:19,358 | INFO | [phase1]   - rule 'TODO dual: only one blocking constraint?' was applied 9'124 times.
2025-09-13 02:24:19,358 | INFO | [phase1]   - rule 'TODO dual: only one unspecified blocking constraint?' was applied 240 times.
2025-09-13 02:24:19,358 | INFO | [phase1]   - rule 'TODO duplicate: duplicate columns in Boolean constraints' was applied 4 times.
2025-09-13 02:24:19,359 | INFO | [phase1]   - rule 'TODO linear2: contains a Boolean.' was applied 9'402 times.
2025-09-13 02:24:19,360 | INFO | [phase1]   - rule 'affine: new relation' was applied 62 times.
2025-09-13 02:24:19,360 | INFO | [phase1]   - rule 'at_most_one: empty or all false' was applied 5'377 times.
2025-09-13 02:24:19,360 | INFO | [phase1]   - rule 'at_most_one: removed literals' was applied 22'303 times.
2025-09-13 02:24:19,361 | INFO | [phase1]   - rule 'at_most_one: size one' was applied 16'926 times.
2025-09-13 02:24:19,361 | INFO | [phase1]   - rule 'at_most_one: transformed into max clique.' was applied 1 time.
2025-09-13 02:24:19,362 | INFO | [phase1]   - rule 'bool_and: x => x' was applied 19 times.
2025-09-13 02:24:19,362 | INFO | [phase1]   - rule 'bool_or: implications' was applied 4'701 times.
2025-09-13 02:24:19,363 | INFO | [phase1]   - rule 'bool_or: removed enforcement literal' was applied 76 times.
2025-09-13 02:24:19,364 | INFO | [phase1]   - rule 'deductions: 1824 stored' was applied 1 time.
2025-09-13 02:24:19,365 | INFO | [phase1]   - rule 'dual: fix variable' was applied 8 times.
2025-09-13 02:24:19,367 | INFO | [phase1]   - rule 'dual: reduced domain' was applied 39 times.
2025-09-13 02:24:19,370 | INFO | [phase1]   - rule 'duplicate: removed constraint' was applied 403 times.
2025-09-13 02:24:19,373 | INFO | [phase1]   - rule 'exactly_one: removed literals' was applied 308 times.
2025-09-13 02:24:19,374 | INFO | [phase1]   - rule 'exactly_one: singleton' was applied 308 times.
2025-09-13 02:24:19,374 | INFO | [phase1]   - rule 'int_prod: boolean affine term' was applied 38 times.
2025-09-13 02:24:19,375 | INFO | [phase1]   - rule 'int_square: reduced target domain.' was applied 589 times.
2025-09-13 02:24:19,375 | INFO | [phase1]   - rule 'lin_max: affine_max target domain reduced' was applied 19 times.
2025-09-13 02:24:19,376 | INFO | [phase1]   - rule 'lin_max: fixed affine_max target' was applied 8 times.
2025-09-13 02:24:19,376 | INFO | [phase1]   - rule 'lin_max: unused affine target' was applied 8 times.
2025-09-13 02:24:19,377 | INFO | [phase1]   - rule 'linear matrix: common horizontal rectangle' was applied 9 times.
2025-09-13 02:24:19,377 | INFO | [phase1]   - rule 'linear1: x in domain' was applied 2'327 times.
2025-09-13 02:24:19,378 | INFO | [phase1]   - rule 'linear: always true' was applied 2'341 times.
2025-09-13 02:24:19,378 | INFO | [phase1]   - rule 'linear: enforcement literal in expression' was applied 57 times.
2025-09-13 02:24:19,379 | INFO | [phase1]   - rule 'linear: fixed or dup variables' was applied 3'268 times.
2025-09-13 02:24:19,379 | INFO | [phase1]   - rule 'linear: negative clause' was applied 4'701 times.
2025-09-13 02:24:19,380 | INFO | [phase1]   - rule 'linear: positive clause' was applied 1'166 times.
2025-09-13 02:24:19,380 | INFO | [phase1]   - rule 'linear: positive equal one' was applied 308 times.
2025-09-13 02:24:19,381 | INFO | [phase1]   - rule 'linear: reduced variable domains' was applied 19 times.
2025-09-13 02:24:19,382 | INFO | [phase1]   - rule 'linear: remapped using affine relations' was applied 108 times.
2025-09-13 02:24:19,383 | INFO | [phase1]   - rule 'linear: singleton column' was applied 19 times.
2025-09-13 02:24:19,383 | INFO | [phase1]   - rule 'linear: small Boolean expression' was applied 38 times.
2025-09-13 02:24:19,384 | INFO | [phase1]   - rule 'linear: variable substitution 0' was applied 1 time.
2025-09-13 02:24:19,384 | INFO | [phase1]   - rule 'linear: variable substitution 1' was applied 17 times.
2025-09-13 02:24:19,385 | INFO | [phase1]   - rule 'objective: expanded via tight equality' was applied 285 times.
2025-09-13 02:24:19,386 | INFO | [phase1]   - rule 'presolve: 2363 unused variables removed.' was applied 1 time.
2025-09-13 02:24:19,386 | INFO | [phase1]   - rule 'presolve: iteration' was applied 2 times.
2025-09-13 02:24:19,386 | INFO | [phase1]   - rule 'setppc: bool_or in at_most_one.' was applied 409 times.
2025-09-13 02:24:19,388 | INFO | [phase1]   - rule 'variables: both boolean and its negation fix the same variable' was applied 19 times.
2025-09-13 02:24:19,389 | INFO | [phase1]   - rule 'variables: detect half reified value encoding' was applied 1'197 times.
2025-09-13 02:24:19,404 | INFO | [phase1] 
2025-09-13 02:24:19,425 | INFO | [phase1] Presolved optimization model '': (model_fingerprint: 0xba486c6edd337a04)
#Variables: 7'051 (#bools: 868 #ints: 39 in objective) (5'452 primary variables)
  - 4'712 Booleans in [0,1]
  - 102 different domains in [-20,29791] with a largest complexity of 31.
#kAtMostOne: 1'440 (#literals: 8'849)
#kBoolAnd: 1'145 (#enforced: 1'145) (#literals: 2'290)
#kBoolOr: 757 (#literals: 2'878)
#kExactlyOne: 409 (#literals: 3'235)
#kIntProd: 1'140
#kLinMax: 22 (#expressions: 363)
#kLinear1: 1'729 (#enforced: 1'729 #multi: 589)
#kLinear2: 1'150 (#enforced: 1'121 #multi: 551)
#kLinearN: 38 (#terms: 4'154)
2025-09-13 02:24:19,434 | INFO | [phase1] 
2025-09-13 02:24:19,434 | INFO | [phase1] Preloading model.
2025-09-13 02:24:19,435 | INFO | [phase1] #Bound   1.79s best:inf   next:[-11060,8605] initial_domain
2025-09-13 02:24:19,455 | INFO | [phase1] #Model   1.81s var:7051/7051 constraints:7830/7830
2025-09-13 02:24:19,460 | INFO | [phase1] 
2025-09-13 02:24:19,461 | INFO | [phase1] Starting search at 1.82s with 8 workers.
2025-09-13 02:24:19,461 | INFO | [phase1] 6 full problem subsolvers: [core, default_lp, max_lp, no_lp, quick_restart, reduced_costs]
2025-09-13 02:24:19,462 | INFO | [phase1] 2 first solution subsolvers: [fj, fs_random_no_lp]
2025-09-13 02:24:19,463 | INFO | [phase1] 9 interleaved subsolvers: [feasibility_pump, graph_arc_lns, graph_cst_lns, graph_dec_lns, graph_var_lns, ls, rins/rens, rnd_cst_lns, rnd_var_lns]
2025-09-13 02:24:19,463 | INFO | [phase1] 3 helper subsolvers: [neighborhood_helper, synchronization_agent, update_gap_integral]
2025-09-13 02:24:19,464 | INFO | [phase1] 
2025-09-13 02:24:19,655 | INFO | [phase1] #1       2.01s best:6323  next:[-11060,6322] fj_restart(batch:1 lin{mvs:15 evals:279} gen{mvs:11 evals:284} #w_updates:1 #perturb:0)
2025-09-13 02:24:19,813 | INFO | [phase1] #2       2.17s best:6201  next:[-11060,6200] rnd_var_lns (d=5.00e-01 s=9 t=0.10 p=0.00 stall=0 h=base) [hint]
2025-09-13 02:24:19,889 | INFO | [phase1] #3       2.24s best:5983  next:[-11060,5982] rnd_cst_lns (d=5.00e-01 s=10 t=0.10 p=0.00 stall=0 h=base)
2025-09-13 02:24:20,099 | INFO | [phase1] #Bound   2.45s best:5983  next:[-1940,5982] default_lp (initial_propagation)
2025-09-13 02:24:20,156 | INFO | [phase1] #Bound   2.51s best:5983  next:[-1931,5982] default_lp
2025-09-13 02:24:20,188 | INFO | [phase1] #4       2.54s best:5923  next:[-1931,5922] graph_cst_lns (d=5.00e-01 s=13 t=0.10 p=0.00 stall=0 h=base)
2025-09-13 02:24:20,203 | INFO | [phase1] #Bound   2.56s best:5923  next:[-1769,5922] default_lp
2025-09-13 02:24:20,218 | INFO | [phase1] #Bound   2.57s best:5923  next:[-1749,5922] quick_restart
2025-09-13 02:24:20,266 | INFO | [phase1] #Bound   2.62s best:5923  next:[-1553,5922] quick_restart
2025-09-13 02:24:20,273 | INFO | [phase1] #Bound   2.63s best:5923  next:[-1462,5922] default_lp
2025-09-13 02:24:20,307 | INFO | [phase1] #Bound   2.66s best:5923  next:[-1001,5922] default_lp
2025-09-13 02:24:20,326 | INFO | [phase1] #Bound   2.68s best:5923  next:[-922,5922] quick_restart
2025-09-13 02:24:20,388 | INFO | [phase1] #Bound   2.74s best:5923  next:[-337,5922] default_lp
2025-09-13 02:24:20,483 | INFO | [phase1] #Bound   2.84s best:5923  next:[-220,5922] quick_restart
2025-09-13 02:24:20,730 | INFO | [phase1] #5       3.09s best:5124  next:[-220,5123] graph_dec_lns (d=5.00e-01 s=14 t=0.10 p=0.00 stall=0 h=base)
2025-09-13 02:24:21,488 | INFO | [phase1] #Bound   3.84s best:5124  next:[0,5123]   max_lp
2025-09-13 02:24:21,548 | INFO | [phase1] #6       3.90s best:4011  next:[0,4010]   rins_lp_lns (d=5.00e-01 s=15 t=0.10 p=0.00 stall=0 h=base)
2025-09-13 02:24:21,587 | INFO | [phase1] #7       3.94s best:1479  next:[0,1478]   no_lp
2025-09-13 02:24:21,622 | INFO | [phase1] #8       3.98s best:1467  next:[0,1466]   no_lp
2025-09-13 02:24:21,804 | INFO | [phase1] #9       4.16s best:1447  next:[0,1446]   ls_restart_compound_perturb(batch:1 lin{mvs:0 evals:6'323} gen{mvs:87 evals:134} comp{mvs:7 btracks:40} #w_updates:1 #perturb:0)
2025-09-13 02:24:22,600 | INFO | [phase1] #10      4.95s best:1446  next:[0,1445]   graph_var_lns (d=7.07e-01 s=17 t=0.10 p=1.00 stall=0 h=base) [combined with: ls_restart_compound_...]
2025-09-13 02:24:23,181 | INFO | [phase1] #11      5.54s best:1445  next:[0,1444]   ls_restart_decay_compound(batch:1 lin{mvs:0 evals:16'421} gen{mvs:650 evals:716} comp{mvs:40 btracks:305} #w_updates:8 #perturb:0)
2025-09-13 02:24:23,601 | INFO | [phase1] #12      5.96s best:8     next:[0,7]      reduced_costs
2025-09-13 02:24:24,484 | INFO | [phase1] #Model   6.84s var:5185/7051 constraints:6101/7830
2025-09-13 02:24:25,024 | INFO | [phase1] #Bound   7.38s best:8     next:[1,7]      reduced_costs
2025-09-13 02:24:26,933 | INFO | [phase1] #Model   9.29s var:5170/7051 constraints:6079/7830
2025-09-13 02:24:30,572 | INFO | [phase1] #13     12.93s best:7     next:[1,6]      reduced_costs
2025-09-13 02:24:34,826 | INFO | [phase1] #Model  17.18s var:5144/7051 constraints:6069/7830
2025-09-13 02:24:35,910 | INFO | [phase1] #Model  18.26s var:5131/7051 constraints:6060/7830
2025-09-13 02:24:36,044 | INFO | [phase1] #14     18.40s best:6     next:[1,5]      reduced_costs
2025-09-13 02:24:36,152 | INFO | [phase1] #Model  18.51s var:5106/7051 constraints:6046/7830
2025-09-13 02:24:37,932 | INFO | [phase1] #15     20.29s best:5     next:[1,4]      graph_dec_lns (d=6.83e-01 s=67 t=0.10 p=0.60 stall=4 h=base)
2025-09-13 02:24:41,551 | INFO | [phase1] #Model  23.91s var:5101/7051 constraints:6040/7830
2025-09-13 02:24:42,243 | INFO | [phase1] #16     24.60s best:3     next:[1,2]      quick_restart
